(set-logic QF_ABV)
(set-info :status sat)
(declare-const a (Array (_ BitVec 8) (_ BitVec 8)))
(declare-const i (_ BitVec 8))
(declare-const j (_ BitVec 8))
(declare-const v (_ BitVec 8))
(assert (not (= i j)))
(assert (= (select (store a i v) j) (select a j)))
(check-sat)
